p edge 250 3113
e 1 3
e 1 12
e 1 13
e 1 28
e 1 29
e 1 94
e 1 125
e 1 138
e 1 140
e 1 151
e 1 154
e 1 181
e 1 201
e 1 213
e 1 224
e 1 233
e 1 237
e 2 16
e 2 24
e 2 25
e 2 29
e 2 51
e 2 64
e 2 65
e 2 70
e 2 73
e 2 76
e 2 87
e 2 92
e 2 104
e 2 115
e 2 116
e 2 141
e 2 150
e 2 152
e 2 169
e 2 173
e 2 179
e 2 199
e 2 201
e 2 202
e 2 206
e 2 207
e 2 213
e 2 214
e 2 219
e 2 224
e 2 228
e 2 229
e 2 240
e 3 6
e 3 12
e 3 17
e 3 23
e 3 30
e 3 34
e 3 50
e 3 52
e 3 53
e 3 72
e 3 77
e 3 90
e 3 104
e 3 107
e 3 109
e 3 110
e 3 117
e 3 119
e 3 127
e 3 130
e 3 134
e 3 135
e 3 142
e 3 158
e 3 164
e 3 169
e 3 172
e 3 177
e 3 203
e 3 209
e 3 211
e 3 215
e 3 218
e 3 223
e 3 242
e 3 243
e 4 7
e 4 10
e 4 11
e 4 16
e 4 33
e 4 40
e 4 41
e 4 70
e 4 85
e 4 90
e 4 99
e 4 106
e 4 111
e 4 131
e 4 141
e 4 155
e 4 164
e 4 168
e 4 175
e 4 177
e 4 180
e 4 195
e 4 203
e 4 208
e 4 210
e 4 221
e 4 233
e 4 243
e 4 250
e 5 14
e 5 18
e 5 20
e 5 45
e 5 69
e 5 70
e 5 71
e 5 100
e 5 114
e 5 124
e 5 131
e 5 148
e 5 173
e 5 183
e 5 184
e 5 186
e 5 202
e 5 207
e 5 213
e 5 224
e 5 232
e 5 234
e 5 241
e 6 11
e 6 18
e 6 23
e 6 28
e 6 39
e 6 50
e 6 69
e 6 79
e 6 86
e 6 89
e 6 106
e 6 108
e 6 125
e 6 127
e 6 130
e 6 154
e 6 155
e 6 171
e 6 186
e 6 192
e 6 193
e 6 208
e 6 209
e 6 231
e 6 245
e 6 250
e 7 19
e 7 25
e 7 79
e 7 80
e 7 92
e 7 100
e 7 103
e 7 139
e 7 142
e 7 148
e 7 182
e 7 190
e 7 224
e 7 225
e 7 244
e 8 12
e 8 13
e 8 14
e 8 28
e 8 36
e 8 43
e 8 47
e 8 50
e 8 57
e 8 61
e 8 73
e 8 94
e 8 100
e 8 106
e 8 120
e 8 122
e 8 143
e 8 147
e 8 148
e 8 150
e 8 192
e 8 202
e 8 214
e 8 238
e 8 243
e 8 245
e 9 22
e 9 33
e 9 42
e 9 57
e 9 69
e 9 81
e 9 87
e 9 89
e 9 135
e 9 137
e 9 144
e 9 156
e 9 160
e 9 192
e 9 193
e 9 203
e 9 219
e 9 241
e 9 248
e 10 21
e 10 22
e 10 45
e 10 49
e 10 50
e 10 51
e 10 53
e 10 60
e 10 61
e 10 72
e 10 82
e 10 105
e 10 112
e 10 113
e 10 147
e 10 150
e 10 163
e 10 165
e 10 169
e 10 173
e 10 179
e 10 189
e 10 192
e 10 198
e 10 207
e 10 209
e 10 211
e 10 214
e 10 219
e 10 226
e 10 227
e 10 239
e 11 12
e 11 15
e 11 25
e 11 27
e 11 29
e 11 34
e 11 44
e 11 46
e 11 74
e 11 75
e 11 100
e 11 124
e 11 144
e 11 145
e 11 150
e 11 175
e 11 198
e 11 211
e 11 223
e 11 225
e 11 239
e 11 247
e 12 17
e 12 57
e 12 60
e 12 68
e 12 104
e 12 106
e 12 110
e 12 120
e 12 122
e 12 124
e 12 146
e 12 151
e 12 182
e 12 197
e 12 207
e 12 221
e 12 241
e 12 250
e 13 27
e 13 51
e 13 52
e 13 64
e 13 68
e 13 81
e 13 90
e 13 99
e 13 105
e 13 106
e 13 126
e 13 154
e 13 176
e 13 198
e 13 204
e 13 218
e 13 221
e 13 227
e 13 240
e 13 244
e 14 16
e 14 19
e 14 35
e 14 50
e 14 64
e 14 74
e 14 83
e 14 104
e 14 119
e 14 145
e 14 149
e 14 160
e 14 171
e 14 182
e 14 188
e 14 191
e 14 195
e 14 202
e 14 224
e 14 225
e 15 30
e 15 41
e 15 55
e 15 66
e 15 67
e 15 73
e 15 74
e 15 85
e 15 94
e 15 140
e 15 144
e 15 149
e 15 160
e 15 169
e 15 170
e 15 173
e 15 197
e 15 200
e 15 207
e 15 212
e 15 213
e 15 235
e 15 238
e 16 25
e 16 59
e 16 79
e 16 93
e 16 113
e 16 131
e 16 154
e 16 156
e 16 157
e 16 162
e 16 169
e 16 172
e 16 182
e 16 189
e 16 191
e 16 196
e 16 205
e 16 208
e 16 214
e 16 220
e 17 20
e 17 30
e 17 33
e 17 46
e 17 49
e 17 58
e 17 82
e 17 86
e 17 94
e 17 104
e 17 108
e 17 111
e 17 128
e 17 129
e 17 133
e 17 140
e 17 149
e 17 153
e 17 158
e 17 168
e 17 170
e 17 171
e 17 174
e 17 179
e 17 194
e 17 200
e 17 203
e 17 225
e 17 239
e 18 21
e 18 25
e 18 46
e 18 47
e 18 54
e 18 56
e 18 84
e 18 85
e 18 86
e 18 90
e 18 126
e 18 129
e 18 133
e 18 146
e 18 149
e 18 152
e 18 155
e 18 174
e 18 177
e 18 186
e 18 193
e 18 207
e 18 212
e 18 249
e 19 29
e 19 37
e 19 68
e 19 69
e 19 88
e 19 91
e 19 143
e 19 157
e 19 159
e 19 180
e 19 186
e 19 189
e 19 202
e 19 208
e 19 225
e 19 234
e 19 235
e 19 239
e 20 23
e 20 69
e 20 93
e 20 114
e 20 121
e 20 133
e 20 140
e 20 149
e 20 154
e 20 159
e 20 161
e 20 164
e 20 178
e 20 187
e 20 194
e 20 220
e 20 222
e 20 224
e 21 25
e 21 37
e 21 53
e 21 54
e 21 66
e 21 70
e 21 82
e 21 92
e 21 101
e 21 103
e 21 112
e 21 123
e 21 127
e 21 134
e 21 162
e 21 163
e 21 183
e 21 188
e 21 215
e 21 246
e 22 44
e 22 53
e 22 63
e 22 65
e 22 66
e 22 69
e 22 85
e 22 86
e 22 132
e 22 146
e 22 151
e 22 173
e 22 176
e 22 205
e 22 227
e 22 237
e 22 250
e 23 53
e 23 54
e 23 66
e 23 95
e 23 97
e 23 100
e 23 101
e 23 105
e 23 126
e 23 130
e 23 131
e 23 138
e 23 160
e 23 161
e 23 166
e 23 174
e 23 176
e 23 177
e 23 186
e 23 188
e 23 193
e 23 241
e 23 245
e 23 247
e 24 27
e 24 41
e 24 45
e 24 48
e 24 49
e 24 67
e 24 76
e 24 79
e 24 89
e 24 94
e 24 104
e 24 126
e 24 129
e 24 132
e 24 140
e 24 146
e 24 148
e 24 149
e 24 151
e 24 171
e 24 175
e 24 176
e 24 188
e 24 204
e 24 207
e 24 210
e 24 218
e 24 224
e 24 227
e 24 228
e 24 234
e 24 240
e 24 246
e 24 247
e 25 35
e 25 48
e 25 49
e 25 67
e 25 96
e 25 106
e 25 110
e 25 125
e 25 127
e 25 129
e 25 130
e 25 131
e 25 140
e 25 163
e 25 164
e 25 165
e 25 168
e 25 186
e 25 197
e 25 214
e 25 242
e 26 29
e 26 32
e 26 38
e 26 39
e 26 62
e 26 78
e 26 95
e 26 102
e 26 112
e 26 118
e 26 126
e 26 127
e 26 134
e 26 138
e 26 148
e 26 161
e 26 162
e 26 180
e 26 210
e 26 211
e 26 221
e 26 234
e 26 235
e 27 30
e 27 32
e 27 39
e 27 42
e 27 46
e 27 84
e 27 92
e 27 99
e 27 106
e 27 120
e 27 129
e 27 163
e 27 171
e 27 203
e 27 208
e 27 209
e 27 210
e 27 220
e 27 221
e 27 222
e 27 234
e 28 41
e 28 47
e 28 51
e 28 59
e 28 65
e 28 68
e 28 77
e 28 81
e 28 121
e 28 122
e 28 127
e 28 130
e 28 155
e 28 159
e 28 160
e 28 166
e 28 174
e 28 177
e 28 188
e 28 195
e 28 198
e 28 203
e 28 207
e 28 222
e 28 231
e 28 232
e 28 241
e 29 41
e 29 43
e 29 65
e 29 72
e 29 73
e 29 74
e 29 77
e 29 90
e 29 91
e 29 109
e 29 113
e 29 116
e 29 133
e 29 139
e 29 147
e 29 153
e 29 155
e 29 158
e 29 171
e 29 180
e 29 193
e 29 198
e 29 212
e 29 214
e 29 232
e 29 237
e 29 240
e 30 36
e 30 37
e 30 48
e 30 65
e 30 69
e 30 71
e 30 95
e 30 99
e 30 106
e 30 112
e 30 113
e 30 118
e 30 138
e 30 141
e 30 169
e 30 170
e 30 178
e 30 180
e 30 219
e 30 221
e 30 229
e 30 238
e 30 245
e 31 57
e 31 59
e 31 60
e 31 66
e 31 69
e 31 70
e 31 78
e 31 94
e 31 116
e 31 128
e 31 133
e 31 153
e 31 159
e 31 172
e 31 181
e 31 182
e 31 198
e 31 206
e 31 216
e 31 226
e 31 238
e 31 250
e 32 49
e 32 77
e 32 93
e 32 115
e 32 128
e 32 139
e 32 159
e 32 168
e 32 200
e 32 214
e 32 215
e 32 220
e 32 228
e 32 243
e 33 40
e 33 46
e 33 52
e 33 54
e 33 59
e 33 91
e 33 92
e 33 96
e 33 103
e 33 106
e 33 118
e 33 123
e 33 131
e 33 152
e 33 160
e 33 199
e 33 204
e 33 228
e 33 229
e 33 244
e 34 45
e 34 65
e 34 69
e 34 73
e 34 95
e 34 98
e 34 101
e 34 113
e 34 114
e 34 124
e 34 134
e 34 141
e 34 162
e 34 165
e 34 167
e 34 188
e 34 190
e 34 198
e 34 208
e 34 211
e 34 225
e 34 228
e 34 235
e 35 40
e 35 47
e 35 53
e 35 56
e 35 80
e 35 103
e 35 122
e 35 132
e 35 143
e 35 164
e 35 168
e 35 190
e 35 206
e 35 220
e 35 227
e 35 241
e 35 246
e 36 39
e 36 40
e 36 41
e 36 45
e 36 59
e 36 97
e 36 104
e 36 128
e 36 142
e 36 146
e 36 150
e 36 154
e 36 162
e 36 163
e 36 178
e 36 189
e 36 202
e 36 209
e 36 213
e 36 215
e 36 226
e 36 229
e 36 237
e 37 42
e 37 49
e 37 75
e 37 83
e 37 92
e 37 122
e 37 124
e 37 131
e 37 133
e 37 146
e 37 151
e 37 152
e 37 155
e 37 177
e 37 180
e 37 206
e 37 218
e 37 231
e 37 232
e 38 46
e 38 51
e 38 64
e 38 66
e 38 71
e 38 76
e 38 82
e 38 97
e 38 104
e 38 111
e 38 113
e 38 127
e 38 144
e 38 194
e 38 200
e 38 202
e 38 213
e 38 230
e 38 241
e 38 244
e 39 40
e 39 42
e 39 61
e 39 64
e 39 76
e 39 81
e 39 103
e 39 111
e 39 114
e 39 131
e 39 161
e 39 163
e 39 173
e 39 180
e 39 197
e 39 210
e 39 221
e 39 222
e 39 228
e 39 231
e 40 41
e 40 47
e 40 50
e 40 62
e 40 63
e 40 68
e 40 70
e 40 78
e 40 79
e 40 88
e 40 129
e 40 134
e 40 137
e 40 152
e 40 165
e 40 176
e 40 178
e 40 181
e 40 185
e 40 189
e 40 192
e 40 198
e 40 201
e 40 202
e 40 225
e 40 232
e 40 241
e 40 245
e 41 66
e 41 69
e 41 70
e 41 75
e 41 85
e 41 97
e 41 98
e 41 128
e 41 139
e 41 165
e 41 166
e 41 175
e 41 180
e 41 215
e 41 221
e 41 222
e 41 232
e 41 242
e 41 250
e 42 49
e 42 56
e 42 62
e 42 63
e 42 69
e 42 71
e 42 72
e 42 87
e 42 100
e 42 132
e 42 162
e 42 163
e 42 166
e 42 170
e 42 179
e 42 202
e 42 209
e 42 220
e 42 230
e 42 238
e 42 241
e 42 242
e 42 248
e 43 53
e 43 58
e 43 69
e 43 73
e 43 76
e 43 77
e 43 102
e 43 133
e 43 136
e 43 151
e 43 158
e 43 170
e 43 195
e 43 196
e 43 215
e 43 219
e 43 221
e 43 225
e 43 226
e 43 229
e 43 231
e 43 240
e 43 247
e 43 248
e 43 249
e 43 250
e 44 57
e 44 58
e 44 61
e 44 86
e 44 91
e 44 97
e 44 109
e 44 129
e 44 130
e 44 138
e 44 139
e 44 144
e 44 151
e 44 175
e 44 184
e 44 187
e 44 211
e 44 216
e 44 222
e 44 241
e 45 46
e 45 48
e 45 55
e 45 61
e 45 88
e 45 93
e 45 95
e 45 119
e 45 126
e 45 128
e 45 136
e 45 144
e 45 148
e 45 158
e 45 186
e 45 250
e 46 68
e 46 75
e 46 76
e 46 83
e 46 90
e 46 96
e 46 107
e 46 112
e 46 125
e 46 130
e 46 135
e 46 147
e 46 172
e 46 213
e 46 235
e 46 239
e 46 246
e 46 248
e 47 67
e 47 76
e 47 84
e 47 111
e 47 133
e 47 141
e 47 176
e 47 188
e 47 196
e 47 211
e 47 218
e 47 225
e 47 231
e 47 238
e 47 245
e 48 73
e 48 74
e 48 88
e 48 97
e 48 98
e 48 140
e 48 141
e 48 144
e 48 152
e 48 154
e 48 176
e 48 184
e 48 189
e 48 192
e 48 193
e 48 199
e 48 204
e 48 207
e 48 209
e 48 216
e 48 238
e 49 60
e 49 66
e 49 70
e 49 72
e 49 84
e 49 96
e 49 105
e 49 111
e 49 133
e 49 135
e 49 147
e 49 167
e 49 169
e 49 171
e 49 176
e 49 190
e 49 203
e 49 207
e 49 218
e 50 68
e 50 74
e 50 93
e 50 94
e 50 100
e 50 105
e 50 115
e 50 132
e 50 150
e 50 161
e 50 189
e 50 190
e 50 191
e 50 200
e 50 207
e 50 215
e 50 227
e 50 233
e 50 239
e 50 242
e 51 60
e 51 68
e 51 73
e 51 87
e 51 88
e 51 120
e 51 140
e 51 143
e 51 191
e 51 201
e 51 216
e 51 225
e 51 250
e 52 62
e 52 71
e 52 94
e 52 100
e 52 108
e 52 110
e 52 119
e 52 124
e 52 127
e 52 129
e 52 130
e 52 132
e 52 140
e 52 141
e 52 147
e 52 153
e 52 162
e 52 195
e 52 203
e 52 214
e 52 237
e 52 238
e 52 243
e 53 60
e 53 67
e 53 68
e 53 71
e 53 72
e 53 89
e 53 90
e 53 93
e 53 97
e 53 106
e 53 156
e 53 166
e 53 169
e 53 170
e 53 176
e 53 184
e 53 185
e 53 188
e 53 190
e 53 205
e 53 207
e 53 209
e 53 211
e 53 215
e 53 237
e 53 244
e 53 245
e 53 247
e 54 67
e 54 70
e 54 75
e 54 76
e 54 120
e 54 130
e 54 131
e 54 139
e 54 140
e 54 146
e 54 150
e 54 159
e 54 172
e 54 175
e 54 183
e 54 192
e 54 198
e 54 200
e 54 204
e 54 224
e 54 231
e 54 232
e 54 234
e 54 239
e 54 245
e 54 246
e 55 80
e 55 84
e 55 86
e 55 122
e 55 126
e 55 146
e 55 155
e 55 185
e 55 192
e 55 211
e 55 217
e 55 221
e 55 224
e 55 236
e 55 242
e 56 64
e 56 91
e 56 92
e 56 129
e 56 140
e 56 145
e 56 161
e 56 163
e 56 187
e 56 190
e 56 191
e 56 200
e 56 201
e 56 208
e 56 213
e 56 236
e 56 245
e 56 247
e 57 67
e 57 75
e 57 80
e 57 106
e 57 116
e 57 137
e 57 142
e 57 151
e 57 168
e 57 180
e 57 182
e 57 185
e 57 193
e 57 195
e 57 203
e 57 208
e 57 209
e 57 240
e 57 247
e 57 249
e 58 96
e 58 117
e 58 130
e 58 132
e 58 136
e 58 137
e 58 142
e 58 147
e 58 155
e 58 167
e 58 181
e 58 184
e 58 191
e 58 203
e 58 206
e 58 224
e 58 239
e 58 243
e 58 245
e 58 247
e 59 61
e 59 62
e 59 81
e 59 82
e 59 83
e 59 93
e 59 98
e 59 99
e 59 118
e 59 125
e 59 136
e 59 144
e 59 145
e 59 147
e 59 149
e 59 150
e 59 162
e 59 163
e 59 175
e 59 195
e 59 200
e 59 202
e 59 220
e 59 239
e 59 242
e 60 76
e 60 79
e 60 92
e 60 93
e 60 104
e 60 106
e 60 109
e 60 114
e 60 138
e 60 140
e 60 142
e 60 152
e 60 160
e 60 172
e 60 181
e 60 210
e 60 226
e 60 234
e 60 239
e 60 248
e 61 65
e 61 87
e 61 97
e 61 127
e 61 130
e 61 170
e 61 188
e 61 191
e 61 208
e 61 238
e 62 66
e 62 67
e 62 72
e 62 103
e 62 108
e 62 113
e 62 122
e 62 155
e 62 157
e 62 161
e 62 173
e 62 211
e 62 225
e 62 226
e 62 233
e 62 234
e 62 250
e 63 71
e 63 74
e 63 93
e 63 105
e 63 116
e 63 128
e 63 137
e 63 145
e 63 174
e 63 184
e 63 217
e 63 219
e 63 226
e 63 239
e 64 89
e 64 99
e 64 118
e 64 150
e 64 151
e 64 156
e 64 160
e 64 175
e 64 180
e 64 198
e 64 212
e 64 213
e 64 219
e 64 221
e 64 228
e 64 229
e 64 238
e 64 244
e 64 250
e 65 66
e 65 73
e 65 77
e 65 83
e 65 90
e 65 97
e 65 103
e 65 116
e 65 122
e 65 123
e 65 126
e 65 150
e 65 151
e 65 166
e 65 169
e 65 177
e 65 182
e 65 202
e 65 207
e 65 232
e 65 241
e 66 68
e 66 70
e 66 79
e 66 93
e 66 95
e 66 96
e 66 104
e 66 111
e 66 117
e 66 129
e 66 132
e 66 134
e 66 143
e 66 163
e 66 178
e 66 183
e 66 185
e 66 192
e 66 200
e 66 201
e 66 208
e 66 220
e 66 224
e 66 226
e 67 80
e 67 81
e 67 85
e 67 93
e 67 104
e 67 109
e 67 111
e 67 123
e 67 127
e 67 147
e 67 152
e 67 164
e 67 186
e 67 197
e 67 205
e 67 221
e 67 223
e 67 235
e 68 83
e 68 113
e 68 116
e 68 119
e 68 131
e 68 157
e 68 160
e 68 161
e 68 162
e 68 168
e 68 169
e 68 170
e 68 188
e 68 189
e 68 193
e 68 205
e 68 214
e 68 232
e 68 234
e 68 242
e 69 77
e 69 84
e 69 88
e 69 90
e 69 93
e 69 108
e 69 125
e 69 132
e 69 141
e 69 145
e 69 156
e 69 173
e 69 190
e 69 192
e 69 196
e 69 206
e 69 218
e 69 221
e 69 225
e 69 244
e 70 107
e 70 111
e 70 113
e 70 117
e 70 131
e 70 135
e 70 143
e 70 153
e 70 157
e 70 191
e 70 203
e 70 224
e 70 240
e 70 243
e 70 248
e 70 250
e 71 73
e 71 75
e 71 102
e 71 105
e 71 117
e 71 126
e 71 134
e 71 140
e 71 160
e 71 163
e 71 166
e 71 178
e 71 189
e 71 199
e 71 209
e 71 219
e 71 230
e 71 234
e 71 236
e 71 240
e 71 245
e 72 78
e 72 83
e 72 91
e 72 122
e 72 149
e 72 158
e 72 162
e 72 166
e 72 177
e 72 185
e 72 206
e 72 218
e 73 76
e 73 86
e 73 99
e 73 116
e 73 119
e 73 124
e 73 129
e 73 131
e 73 134
e 73 150
e 73 158
e 73 166
e 73 205
e 73 209
e 73 213
e 73 215
e 73 220
e 73 223
e 73 231
e 73 234
e 73 243
e 73 248
e 74 79
e 74 93
e 74 99
e 74 109
e 74 112
e 74 129
e 74 136
e 74 150
e 74 152
e 74 156
e 74 159
e 74 165
e 74 171
e 74 200
e 74 212
e 74 213
e 74 215
e 74 218
e 75 78
e 75 103
e 75 112
e 75 116
e 75 121
e 75 134
e 75 158
e 75 162
e 75 174
e 75 191
e 75 192
e 75 196
e 75 204
e 75 206
e 75 210
e 75 217
e 75 239
e 75 247
e 76 85
e 76 101
e 76 121
e 76 147
e 76 149
e 76 155
e 76 159
e 76 179
e 76 188
e 76 195
e 76 217
e 76 224
e 76 229
e 76 232
e 76 234
e 76 237
e 77 80
e 77 88
e 77 90
e 77 122
e 77 128
e 77 147
e 77 160
e 77 165
e 77 192
e 77 195
e 77 202
e 77 222
e 77 233
e 77 237
e 77 239
e 77 240
e 77 243
e 77 245
e 78 83
e 78 91
e 78 106
e 78 107
e 78 113
e 78 119
e 78 120
e 78 155
e 78 156
e 78 164
e 78 179
e 78 190
e 78 201
e 79 85
e 79 94
e 79 95
e 79 101
e 79 135
e 79 141
e 79 157
e 79 163
e 79 189
e 79 202
e 79 214
e 79 221
e 79 227
e 79 233
e 79 243
e 80 89
e 80 96
e 80 104
e 80 108
e 80 118
e 80 126
e 80 128
e 80 151
e 80 163
e 80 166
e 80 177
e 80 184
e 80 197
e 80 206
e 80 213
e 80 216
e 80 227
e 80 230
e 80 245
e 81 100
e 81 101
e 81 106
e 81 114
e 81 122
e 81 130
e 81 132
e 81 156
e 81 161
e 81 174
e 81 176
e 81 217
e 81 220
e 81 230
e 82 97
e 82 98
e 82 99
e 82 102
e 82 115
e 82 120
e 82 123
e 82 138
e 82 174
e 82 192
e 82 193
e 82 205
e 82 211
e 82 213
e 82 220
e 82 245
e 82 246
e 83 93
e 83 112
e 83 131
e 83 135
e 83 138
e 83 142
e 83 169
e 83 210
e 83 219
e 83 220
e 83 239
e 83 246
e 84 103
e 84 110
e 84 116
e 84 136
e 84 155
e 84 158
e 84 159
e 84 170
e 84 171
e 84 175
e 84 177
e 84 178
e 84 208
e 84 218
e 84 239
e 84 242
e 85 86
e 85 89
e 85 97
e 85 100
e 85 101
e 85 110
e 85 111
e 85 126
e 85 127
e 85 128
e 85 139
e 85 140
e 85 148
e 85 149
e 85 156
e 85 208
e 85 219
e 85 220
e 85 227
e 85 228
e 86 92
e 86 95
e 86 119
e 86 134
e 86 142
e 86 143
e 86 155
e 86 159
e 86 172
e 86 174
e 86 188
e 86 199
e 86 205
e 86 211
e 86 223
e 86 229
e 86 234
e 86 243
e 87 101
e 87 118
e 87 121
e 87 124
e 87 128
e 87 135
e 87 147
e 87 218
e 87 220
e 87 222
e 87 224
e 87 230
e 87 233
e 87 244
e 87 250
e 88 108
e 88 127
e 88 135
e 88 140
e 88 141
e 88 153
e 88 154
e 88 157
e 88 171
e 88 194
e 88 197
e 88 221
e 88 222
e 88 231
e 88 234
e 88 241
e 88 245
e 89 90
e 89 96
e 89 102
e 89 119
e 89 127
e 89 137
e 89 140
e 89 142
e 89 145
e 89 148
e 89 171
e 89 179
e 89 184
e 89 187
e 89 232
e 89 239
e 90 101
e 90 104
e 90 117
e 90 130
e 90 134
e 90 159
e 90 165
e 90 166
e 90 176
e 90 211
e 90 218
e 90 233
e 90 234
e 90 235
e 90 245
e 91 128
e 91 132
e 91 136
e 91 151
e 91 157
e 91 160
e 91 172
e 91 197
e 91 198
e 91 213
e 91 216
e 91 221
e 91 224
e 91 228
e 91 229
e 91 245
e 92 133
e 92 134
e 92 136
e 92 148
e 92 163
e 92 169
e 92 174
e 92 187
e 92 222
e 92 231
e 92 238
e 92 245
e 92 247
e 92 248
e 93 118
e 93 122
e 93 131
e 93 140
e 93 143
e 93 166
e 93 169
e 93 183
e 93 200
e 93 201
e 93 210
e 93 226
e 93 232
e 93 236
e 94 104
e 94 117
e 94 121
e 94 146
e 94 150
e 94 167
e 94 171
e 94 179
e 94 187
e 94 190
e 94 196
e 94 200
e 94 202
e 94 210
e 94 211
e 94 213
e 94 224
e 94 233
e 95 99
e 95 107
e 95 108
e 95 132
e 95 136
e 95 139
e 95 145
e 95 146
e 95 154
e 95 177
e 95 247
e 95 248
e 96 119
e 96 121
e 96 125
e 96 136
e 96 140
e 96 161
e 96 163
e 96 166
e 96 171
e 96 177
e 96 183
e 96 195
e 96 203
e 96 212
e 96 222
e 96 223
e 96 226
e 97 110
e 97 122
e 97 133
e 97 144
e 97 146
e 97 163
e 97 164
e 97 167
e 97 178
e 97 190
e 97 202
e 97 208
e 97 211
e 97 216
e 97 229
e 97 234
e 97 247
e 98 121
e 98 122
e 98 138
e 98 150
e 98 155
e 98 159
e 98 168
e 98 175
e 98 192
e 98 196
e 98 211
e 98 215
e 98 226
e 98 228
e 98 231
e 98 239
e 98 249
e 99 163
e 99 168
e 99 176
e 99 218
e 99 226
e 99 228
e 100 111
e 100 113
e 100 114
e 100 118
e 100 119
e 100 126
e 100 172
e 100 176
e 100 182
e 100 183
e 100 197
e 100 200
e 100 232
e 100 239
e 100 244
e 100 246
e 100 248
e 101 113
e 101 120
e 101 127
e 101 135
e 101 138
e 101 142
e 101 148
e 101 156
e 101 159
e 101 170
e 101 177
e 101 203
e 101 207
e 101 210
e 101 211
e 101 214
e 101 224
e 101 245
e 102 105
e 102 106
e 102 120
e 102 133
e 102 140
e 102 141
e 102 150
e 102 175
e 102 188
e 102 202
e 102 229
e 102 231
e 103 106
e 103 112
e 103 134
e 103 138
e 103 146
e 103 163
e 103 166
e 103 201
e 103 206
e 103 221
e 103 222
e 103 229
e 103 231
e 103 235
e 103 246
e 104 105
e 104 106
e 104 109
e 104 119
e 104 122
e 104 129
e 104 166
e 104 169
e 104 181
e 104 184
e 104 186
e 104 191
e 104 195
e 104 197
e 104 199
e 104 208
e 104 232
e 104 250
e 105 107
e 105 118
e 105 122
e 105 134
e 105 138
e 105 147
e 105 150
e 105 162
e 105 183
e 105 200
e 105 213
e 105 228
e 106 114
e 106 115
e 106 128
e 106 130
e 106 143
e 106 151
e 106 158
e 106 170
e 106 172
e 106 184
e 106 186
e 106 189
e 106 207
e 106 215
e 106 218
e 106 224
e 106 236
e 106 240
e 106 246
e 106 249
e 107 108
e 107 115
e 107 127
e 107 136
e 107 166
e 107 170
e 107 171
e 107 182
e 107 187
e 107 196
e 107 202
e 107 211
e 107 221
e 107 241
e 107 247
e 108 126
e 108 135
e 108 152
e 108 157
e 108 158
e 108 159
e 108 168
e 108 170
e 108 172
e 108 191
e 108 222
e 108 226
e 108 228
e 109 123
e 109 128
e 109 159
e 109 164
e 109 170
e 109 177
e 109 179
e 109 181
e 109 184
e 109 195
e 109 202
e 109 211
e 109 213
e 109 218
e 109 227
e 109 245
e 110 119
e 110 126
e 110 130
e 110 140
e 110 154
e 110 165
e 110 171
e 110 180
e 110 189
e 110 193
e 110 196
e 110 197
e 110 200
e 110 242
e 110 249
e 111 121
e 111 139
e 111 175
e 111 182
e 111 197
e 111 217
e 111 245
e 112 128
e 112 134
e 112 145
e 112 150
e 112 151
e 112 166
e 112 168
e 112 172
e 112 191
e 112 197
e 112 205
e 112 207
e 112 211
e 112 213
e 112 221
e 112 229
e 112 237
e 112 239
e 112 249
e 113 115
e 113 119
e 113 128
e 113 160
e 113 161
e 113 164
e 113 188
e 113 196
e 113 218
e 113 226
e 113 237
e 113 243
e 114 141
e 114 143
e 114 145
e 114 147
e 114 152
e 114 156
e 114 160
e 114 170
e 114 182
e 114 193
e 114 198
e 114 203
e 114 213
e 114 226
e 114 231
e 115 121
e 115 153
e 115 167
e 115 188
e 115 193
e 115 216
e 115 220
e 115 243
e 116 132
e 116 134
e 116 142
e 116 146
e 116 152
e 116 167
e 116 174
e 116 178
e 116 188
e 116 214
e 116 217
e 116 224
e 116 231
e 116 233
e 116 248
e 117 127
e 117 139
e 117 149
e 117 176
e 117 189
e 117 192
e 117 195
e 117 200
e 117 203
e 117 207
e 117 212
e 117 217
e 117 218
e 117 244
e 118 125
e 118 140
e 118 150
e 118 167
e 118 175
e 118 181
e 118 184
e 118 185
e 118 195
e 118 197
e 118 199
e 118 206
e 118 216
e 118 228
e 119 122
e 119 125
e 119 154
e 119 158
e 119 159
e 119 168
e 119 177
e 119 184
e 119 196
e 119 197
e 119 208
e 119 215
e 119 222
e 119 234
e 119 244
e 119 245
e 120 130
e 120 140
e 120 153
e 120 156
e 120 170
e 120 171
e 120 180
e 120 181
e 120 187
e 120 193
e 120 200
e 120 208
e 120 211
e 120 226
e 120 228
e 120 242
e 120 245
e 121 122
e 121 128
e 121 131
e 121 160
e 121 182
e 121 184
e 121 188
e 121 208
e 121 247
e 121 248
e 122 128
e 122 147
e 122 153
e 122 159
e 122 180
e 122 186
e 122 191
e 122 192
e 122 200
e 122 212
e 122 220
e 122 236
e 122 238
e 122 242
e 123 131
e 123 140
e 123 166
e 123 175
e 123 180
e 123 189
e 123 192
e 123 194
e 123 204
e 123 214
e 123 225
e 123 234
e 123 242
e 124 128
e 124 129
e 124 130
e 124 132
e 124 133
e 124 136
e 124 146
e 124 171
e 124 172
e 124 176
e 124 185
e 124 194
e 124 200
e 124 205
e 124 206
e 124 209
e 124 222
e 124 228
e 124 229
e 124 230
e 124 233
e 125 133
e 125 148
e 125 164
e 125 168
e 125 173
e 125 185
e 125 192
e 125 194
e 125 197
e 125 216
e 125 218
e 125 236
e 125 239
e 125 240
e 125 246
e 126 131
e 126 162
e 126 173
e 126 192
e 126 198
e 126 214
e 126 222
e 126 245
e 127 133
e 127 144
e 127 148
e 127 155
e 127 158
e 127 159
e 127 167
e 127 176
e 127 177
e 127 193
e 127 229
e 127 249
e 128 133
e 128 170
e 128 173
e 128 178
e 128 193
e 128 208
e 128 222
e 128 229
e 128 231
e 128 236
e 128 244
e 129 130
e 129 132
e 129 139
e 129 164
e 129 201
e 129 205
e 129 234
e 129 236
e 129 244
e 130 141
e 130 143
e 130 154
e 130 180
e 130 190
e 130 224
e 130 228
e 130 230
e 130 236
e 130 243
e 130 244
e 131 140
e 131 146
e 131 149
e 131 171
e 131 172
e 131 174
e 131 184
e 131 185
e 131 187
e 131 207
e 131 211
e 131 215
e 131 221
e 131 227
e 131 238
e 132 143
e 132 153
e 132 156
e 132 164
e 132 180
e 132 188
e 132 191
e 132 201
e 132 204
e 132 220
e 132 222
e 132 223
e 132 234
e 132 240
e 133 153
e 133 155
e 133 158
e 133 199
e 133 215
e 133 217
e 133 225
e 133 235
e 133 243
e 133 245
e 134 144
e 134 153
e 134 168
e 134 170
e 134 171
e 134 181
e 134 185
e 134 199
e 134 209
e 134 211
e 134 217
e 134 228
e 135 158
e 135 163
e 135 173
e 135 174
e 135 180
e 135 186
e 135 201
e 135 202
e 135 212
e 135 225
e 135 230
e 135 236
e 136 140
e 136 145
e 136 150
e 136 154
e 136 174
e 136 177
e 136 184
e 136 187
e 136 194
e 136 197
e 136 206
e 136 208
e 136 229
e 136 236
e 136 249
e 137 173
e 137 179
e 137 202
e 137 203
e 137 210
e 137 213
e 137 214
e 137 225
e 137 229
e 137 231
e 138 140
e 138 143
e 138 151
e 138 154
e 138 166
e 138 172
e 138 180
e 138 182
e 138 186
e 138 191
e 138 199
e 138 201
e 138 208
e 138 211
e 138 219
e 138 222
e 138 227
e 138 228
e 138 245
e 139 150
e 139 156
e 139 158
e 139 181
e 139 190
e 139 196
e 139 202
e 139 208
e 139 210
e 139 217
e 139 226
e 139 227
e 139 231
e 139 239
e 139 247
e 140 151
e 140 156
e 140 160
e 140 165
e 140 183
e 140 202
e 140 205
e 140 213
e 140 222
e 140 244
e 140 247
e 141 154
e 141 157
e 141 176
e 141 198
e 141 199
e 141 210
e 141 225
e 141 250
e 142 149
e 142 157
e 142 235
e 143 144
e 143 152
e 143 174
e 143 175
e 143 176
e 143 191
e 143 200
e 143 212
e 143 221
e 143 230
e 143 235
e 143 244
e 143 246
e 143 250
e 144 158
e 144 159
e 144 203
e 144 220
e 144 226
e 145 176
e 145 181
e 145 193
e 145 206
e 145 209
e 145 218
e 145 231
e 145 235
e 145 241
e 145 250
e 146 148
e 146 157
e 146 160
e 146 163
e 146 168
e 146 174
e 146 187
e 146 214
e 146 227
e 146 230
e 147 150
e 147 151
e 147 156
e 147 158
e 147 163
e 147 164
e 147 167
e 147 173
e 147 180
e 147 216
e 147 225
e 147 227
e 147 232
e 148 168
e 148 232
e 148 237
e 148 243
e 148 246
e 149 152
e 149 154
e 149 156
e 149 176
e 149 193
e 149 213
e 149 218
e 149 224
e 149 227
e 149 228
e 149 231
e 149 234
e 149 241
e 149 245
e 150 169
e 150 184
e 150 187
e 150 200
e 150 217
e 150 231
e 151 164
e 151 170
e 151 180
e 151 193
e 151 207
e 151 247
e 152 171
e 152 180
e 152 229
e 152 232
e 152 234
e 152 238
e 153 155
e 153 159
e 153 170
e 153 171
e 153 172
e 153 175
e 153 178
e 153 190
e 153 195
e 153 196
e 153 209
e 153 211
e 153 212
e 153 234
e 153 237
e 153 238
e 154 159
e 154 176
e 154 178
e 154 195
e 154 200
e 154 212
e 154 223
e 154 236
e 154 237
e 154 238
e 154 246
e 155 178
e 155 182
e 155 191
e 155 197
e 155 206
e 155 209
e 155 230
e 155 239
e 155 250
e 156 173
e 156 193
e 156 195
e 156 200
e 156 217
e 156 236
e 156 238
e 157 163
e 157 166
e 157 172
e 157 186
e 157 195
e 157 200
e 157 208
e 157 223
e 157 241
e 157 243
e 157 246
e 157 249
e 158 161
e 158 164
e 158 176
e 158 180
e 158 181
e 158 184
e 158 185
e 158 194
e 158 199
e 158 201
e 158 231
e 158 238
e 159 178
e 159 180
e 159 183
e 159 198
e 159 204
e 159 218
e 159 241
e 160 180
e 160 183
e 160 195
e 160 207
e 160 208
e 160 214
e 160 222
e 160 230
e 160 235
e 160 242
e 161 163
e 161 171
e 161 175
e 161 206
e 161 211
e 161 217
e 161 224
e 162 181
e 162 200
e 162 203
e 162 210
e 162 225
e 162 227
e 162 228
e 162 230
e 162 232
e 162 246
e 163 169
e 163 179
e 163 189
e 163 204
e 163 236
e 164 166
e 164 173
e 164 188
e 164 202
e 164 212
e 164 213
e 164 220
e 164 231
e 164 247
e 165 192
e 165 222
e 165 227
e 166 194
e 166 195
e 166 201
e 166 208
e 166 214
e 166 233
e 166 237
e 167 182
e 167 210
e 167 216
e 167 221
e 168 169
e 168 172
e 168 175
e 168 177
e 168 178
e 168 198
e 168 199
e 168 219
e 168 226
e 168 229
e 168 239
e 168 243
e 168 248
e 169 188
e 169 196
e 169 235
e 169 248
e 170 175
e 170 188
e 170 200
e 170 212
e 170 214
e 171 174
e 171 198
e 171 201
e 171 202
e 171 208
e 171 216
e 171 226
e 171 233
e 171 238
e 171 239
e 171 242
e 171 247
e 172 184
e 172 219
e 172 231
e 172 237
e 172 239
e 172 240
e 172 247
e 172 249
e 173 204
e 173 219
e 173 237
e 174 178
e 174 199
e 174 205
e 174 206
e 174 221
e 174 241
e 174 250
e 175 177
e 175 199
e 175 202
e 175 212
e 175 216
e 175 228
e 175 250
e 176 177
e 176 198
e 176 201
e 176 206
e 176 209
e 176 236
e 177 178
e 177 190
e 177 195
e 177 202
e 177 207
e 177 211
e 177 226
e 178 195
e 178 209
e 178 212
e 178 213
e 178 230
e 178 234
e 179 180
e 179 182
e 179 191
e 179 205
e 179 206
e 179 207
e 179 215
e 179 218
e 179 227
e 179 239
e 179 243
e 180 199
e 180 203
e 180 216
e 180 229
e 180 239
e 180 242
e 180 244
e 180 245
e 181 199
e 181 205
e 181 215
e 181 217
e 181 230
e 181 234
e 181 243
e 181 247
e 181 248
e 181 249
e 181 250
e 182 195
e 182 199
e 182 208
e 182 212
e 182 225
e 182 234
e 183 189
e 183 197
e 183 213
e 183 226
e 183 236
e 183 250
e 184 187
e 184 190
e 184 224
e 185 190
e 185 196
e 185 202
e 185 205
e 185 206
e 185 207
e 185 216
e 185 224
e 185 229
e 185 230
e 185 245
e 185 248
e 186 228
e 186 230
e 186 232
e 187 189
e 187 194
e 187 199
e 187 214
e 187 227
e 187 228
e 187 231
e 187 238
e 188 226
e 188 246
e 188 247
e 188 250
e 189 190
e 189 191
e 189 198
e 189 201
e 189 207
e 189 214
e 189 229
e 189 231
e 189 233
e 189 243
e 190 191
e 190 194
e 190 197
e 190 203
e 190 204
e 190 205
e 190 215
e 190 234
e 190 239
e 191 207
e 191 209
e 191 216
e 191 225
e 191 246
e 192 225
e 192 226
e 192 238
e 192 240
e 192 249
e 193 202
e 193 205
e 193 216
e 193 219
e 193 223
e 193 237
e 193 239
e 193 241
e 193 247
e 193 250
e 194 195
e 194 209
e 194 215
e 194 232
e 194 242
e 194 250
e 195 205
e 195 213
e 195 214
e 195 225
e 195 233
e 195 236
e 195 240
e 195 242
e 195 244
e 196 198
e 196 201
e 196 208
e 196 214
e 196 220
e 196 221
e 196 222
e 196 230
e 196 244
e 196 245
e 196 248
e 196 250
e 197 205
e 197 214
e 197 224
e 197 241
e 198 204
e 198 207
e 198 220
e 198 223
e 198 233
e 198 246
e 198 250
e 199 203
e 199 210
e 199 213
e 199 228
e 199 241
e 199 243
e 199 245
e 200 203
e 200 206
e 200 211
e 200 241
e 201 202
e 201 206
e 201 216
e 201 236
e 201 239
e 201 246
e 202 204
e 202 206
e 202 207
e 202 222
e 202 238
e 202 244
e 203 206
e 203 213
e 203 222
e 203 230
e 203 236
e 203 248
e 204 240
e 204 242
e 204 247
e 205 206
e 205 216
e 205 234
e 205 238
e 205 239
e 205 241
e 205 250
e 206 217
e 206 229
e 206 245
e 207 209
e 207 212
e 207 216
e 207 250
e 208 218
e 208 227
e 208 239
e 209 232
e 209 249
e 210 239
e 210 243
e 210 247
e 210 249
e 211 215
e 211 218
e 211 230
e 211 247
e 211 248
e 212 232
e 212 241
e 212 244
e 213 220
e 213 235
e 213 248
e 213 249
e 214 218
e 214 241
e 214 250
e 215 218
e 215 228
e 215 237
e 216 226
e 216 246
e 216 247
e 217 223
e 217 229
e 217 239
e 217 241
e 217 242
e 217 245
e 217 250
e 219 220
e 219 230
e 219 241
e 219 248
e 220 245
e 220 246
e 220 250
e 221 223
e 221 238
e 221 245
e 222 232
e 222 236
e 222 249
e 222 250
e 223 224
e 223 230
e 223 244
e 224 234
e 224 240
e 225 233
e 225 238
e 225 241
e 225 243
e 226 227
e 226 230
e 226 231
e 226 236
e 226 245
e 226 248
e 227 235
e 227 238
e 228 233
e 228 244
e 228 245
e 228 250
e 229 231
e 229 249
e 230 238
e 232 235
e 232 240
e 232 244
e 232 246
e 232 250
e 233 244
e 233 245
e 233 248
e 235 247
e 237 245
e 238 239
e 240 250
e 246 249
